peakDumbCharging = 29600; 
Machine = anon_enum(16); 
machineSpeed = [3700,3700,3700,3700,3700,3700,3700,3700,3700,3700,3700,3700,3700,3700,3700,3700]; 
machineLoad = [3700,3700,3700,3700,3700,3700,3700,3700,3700,3700,3700,3700,3700,3700,3700,3700]; 
Car = anon_enum(35); 
demandCar = [13480,120,7240,9000,4920,13200,13320,5040,10640,2000,6440,11000,5720,1280,4600,4120,12640,11040,9800,10160,33400,5880,13400,6840,2960,9040,5320,12480,2720,3720,31000,56320,3680,3760,11400]; 
arrivalCar = [72,69,68,65,65,64,64,61,61,60,60,60,58,58,57,54,54,46,42,41,39,39,36,36,35,34,34,33,31,31,28,26,25,23,23]; 
departureCar = [78,71,73,71,67,74,72,64,65,63,63,65,68,60,67,58,59,54,49,45,57,42,45,39,38,45,38,42,34,33,40,59,28,26,60]; 
